Minimize
  - 34 y_0 - 17 y_1 - 52 y_2 - 30 y_3 - 28 y_4 - 34 y_5 - 20 y_6 - 33 y_7
   - 19 y_8 - 27 y_9 - 38 y_10 - 34 y_11 - 23 y_12 - 19 y_13 - 37 y_14
   - 27 y_15 - 10 y_16 - 21 y_17 - 27 y_19 + 530 Constant
Subject To
 c_0: y_3 = 1
 c_1_0: y_0 + y_5 + y_11 + y_14 + y_19 >= 1
 c_1_1: y_1 + y_8 + y_12 + y_16 + y_17 >= 1
 c_1_2: y_2 >= 1
 c_1_3: y_3 + y_7 + y_9 >= 1
 c_1_4: y_4 + y_6 + y_13 + y_15 >= 1
 c_1_5: y_0 + y_5 + y_11 + y_14 + y_19 >= 1
 c_1_6: y_4 + y_6 + y_13 + y_15 + y_17 >= 1
 c_1_7: y_3 + y_7 >= 1
 c_1_8: y_1 + y_8 + y_9 + y_16 + y_19 >= 1
 c_1_9: y_3 + y_8 + y_9 >= 1
 c_1_10: y_10 >= 1
 c_1_11: y_0 + y_5 + y_11 + y_14 + y_19 >= 1
 c_1_12: y_1 + y_12 + y_17 >= 1
 c_1_13: y_4 + y_6 + y_13 + y_15 >= 1
 c_1_14: y_0 + y_5 + y_11 + y_14 >= 1
 c_1_15: y_4 + y_6 + y_13 + y_15 >= 1
 c_1_16: y_1 + y_8 + y_16 + y_18 >= 1
 c_1_17: y_1 + y_6 + y_12 + y_17 >= 1
 c_1_18: y_16 + y_18 >= 1
 c_1_19: y_0 + y_5 + y_8 + y_11 + y_19 >= 1
Bounds
 Constant = 1
Binaries
 y_0 y_1 y_2 y_3 y_4 y_5 y_6 y_7 y_8 y_9 y_10 y_11 y_12 y_13 y_14 y_15 y_16
 y_17 y_18 y_19
End
